c Standarized MaxSat Instance
c{
c "sha1sum": "16a4803484faeb93e424f11185963e449ae8dd17",
c "nvars": 313,
c "ncls": 897,
c "total_lits": 2624,
c "nhards": 837,
c "nhard_nlits": 2564,
c "nhard_len_stats":
c    { "min": 1,
c      "max": 4,
c      "ave": 3.0633,
c      "stddev": 0.6875 },
c "nsofts": 60,
c "nsoft_nlits": 60,
c "nsoft_len_stats":
c    { "min": 1,
c      "max": 1,
c      "ave": 1.0000,
c      "stddev": 0.0000 },
c "nsoft_wts": 1,
c "soft_wt_stats":
c    { "min": 1,
c      "max": 1,
c      "ave": 1.0000,
c      "stddev": 0.0000 }
c}
c------------------------------------------------------------
c This instance encodes a supposedly trivial MaxSAT formula.
c The hard part of the formula encodes a cardinality constraint:
c     x1 + ... + x60 <= 28
c Cardinality encoding used is 'mtot'.
c The soft part prefers all the variables to be set to true:
c     x1 = 1, ..., x60 = 1
c As a result, the optimum cost for this formula is 32.
c
1 1 0
1 2 0
1 3 0
1 4 0
1 5 0
1 6 0
1 7 0
1 8 0
1 9 0
1 10 0
1 11 0
1 12 0
1 13 0
1 14 0
1 15 0
1 16 0
1 17 0
1 18 0
1 19 0
1 20 0
1 21 0
1 22 0
1 23 0
1 24 0
1 25 0
1 26 0
1 27 0
1 28 0
1 29 0
1 30 0
1 31 0
1 32 0
1 33 0
1 34 0
1 35 0
1 36 0
1 37 0
1 38 0
1 39 0
1 40 0
1 41 0
1 42 0
1 43 0
1 44 0
1 45 0
1 46 0
1 47 0
1 48 0
1 49 0
1 50 0
1 51 0
1 52 0
1 53 0
1 54 0
1 55 0
1 56 0
1 57 0
1 58 0
1 59 0
1 60 0
h -89 69 95 0
h -90 70 95 0
h -91 71 95 0
h -92 72 95 0
h -93 73 95 0
h -94 74 95 0
h -79 69 95 0
h -80 70 95 0
h -81 71 95 0
h -82 72 95 0
h -83 73 95 0
h -84 74 95 0
h -79 -89 70 95 0
h -79 -90 71 95 0
h -79 -91 72 95 0
h -79 -92 73 95 0
h -79 -93 74 95 0
h -79 -94 95 0
h -80 -89 71 95 0
h -80 -90 72 95 0
h -80 -91 73 95 0
h -80 -92 74 95 0
h -80 -93 95 0
h -80 -94 69 0
h -81 -89 72 95 0
h -81 -90 73 95 0
h -81 -91 74 95 0
h -81 -92 95 0
h -81 -93 69 0
h -81 -94 70 0
h -82 -89 73 95 0
h -82 -90 74 95 0
h -82 -91 95 0
h -82 -92 69 0
h -82 -93 70 0
h -82 -94 71 0
h -83 -89 74 95 0
h -83 -90 95 0
h -83 -91 69 0
h -83 -92 70 0
h -83 -93 71 0
h -83 -94 72 0
h -84 -89 95 0
h -84 -90 69 0
h -84 -91 70 0
h -84 -92 71 0
h -84 -93 72 0
h -84 -94 73 0
h -95 61 0
h -85 61 0
h -95 -85 62 0
h -86 62 0
h -95 -86 63 0
h -87 63 0
h -95 -87 64 0
h -88 64 0
h -95 -88 65 0
h -75 61 0
h -95 -75 62 0
h -76 62 0
h -95 -76 63 0
h -77 63 0
h -95 -77 64 0
h -78 64 0
h -95 -78 65 0
h -75 -85 62 0
h -95 -75 -85 63 0
h -75 -86 63 0
h -95 -75 -86 64 0
h -75 -87 64 0
h -95 -75 -87 65 0
h -75 -88 65 0
h -95 -75 -88 66 0
h -76 -85 63 0
h -95 -76 -85 64 0
h -76 -86 64 0
h -95 -76 -86 65 0
h -76 -87 65 0
h -95 -76 -87 66 0
h -76 -88 66 0
h -95 -76 -88 67 0
h -77 -85 64 0
h -95 -77 -85 65 0
h -77 -86 65 0
h -95 -77 -86 66 0
h -77 -87 66 0
h -95 -77 -87 67 0
h -77 -88 67 0
h -95 -77 -88 68 0
h -78 -85 65 0
h -95 -78 -85 66 0
h -78 -86 66 0
h -95 -78 -86 67 0
h -78 -87 67 0
h -95 -78 -87 68 0
h -78 -88 68 0
h -95 -78 -88 0
h -106 89 112 0
h -107 90 112 0
h -108 91 112 0
h -109 92 112 0
h -110 93 112 0
h -111 94 112 0
h -98 89 112 0
h -99 90 112 0
h -100 91 112 0
h -101 92 112 0
h -102 93 112 0
h -103 94 112 0
h -98 -106 90 112 0
h -98 -107 91 112 0
h -98 -108 92 112 0
h -98 -109 93 112 0
h -98 -110 94 112 0
h -98 -111 112 0
h -99 -106 91 112 0
h -99 -107 92 112 0
h -99 -108 93 112 0
h -99 -109 94 112 0
h -99 -110 112 0
h -99 -111 89 0
h -100 -106 92 112 0
h -100 -107 93 112 0
h -100 -108 94 112 0
h -100 -109 112 0
h -100 -110 89 0
h -100 -111 90 0
h -101 -106 93 112 0
h -101 -107 94 112 0
h -101 -108 112 0
h -101 -109 89 0
h -101 -110 90 0
h -101 -111 91 0
h -102 -106 94 112 0
h -102 -107 112 0
h -102 -108 89 0
h -102 -109 90 0
h -102 -110 91 0
h -102 -111 92 0
h -103 -106 112 0
h -103 -107 89 0
h -103 -108 90 0
h -103 -109 91 0
h -103 -110 92 0
h -103 -111 93 0
h -112 85 0
h -104 85 0
h -112 -104 86 0
h -105 86 0
h -112 -105 87 0
h -96 85 0
h -112 -96 86 0
h -97 86 0
h -112 -97 87 0
h -96 -104 86 0
h -112 -96 -104 87 0
h -96 -105 87 0
h -112 -96 -105 88 0
h -97 -104 87 0
h -112 -97 -104 88 0
h -97 -105 88 0
h -112 -97 -105 0
h -121 106 127 0
h -122 107 127 0
h -123 108 127 0
h -124 109 127 0
h -125 110 127 0
h -126 111 127 0
h -114 106 127 0
h -115 107 127 0
h -116 108 127 0
h -117 109 127 0
h -118 110 127 0
h -119 111 127 0
h -114 -121 107 127 0
h -114 -122 108 127 0
h -114 -123 109 127 0
h -114 -124 110 127 0
h -114 -125 111 127 0
h -114 -126 127 0
h -115 -121 108 127 0
h -115 -122 109 127 0
h -115 -123 110 127 0
h -115 -124 111 127 0
h -115 -125 127 0
h -115 -126 106 0
h -116 -121 109 127 0
h -116 -122 110 127 0
h -116 -123 111 127 0
h -116 -124 127 0
h -116 -125 106 0
h -116 -126 107 0
h -117 -121 110 127 0
h -117 -122 111 127 0
h -117 -123 127 0
h -117 -124 106 0
h -117 -125 107 0
h -117 -126 108 0
h -118 -121 111 127 0
h -118 -122 127 0
h -118 -123 106 0
h -118 -124 107 0
h -118 -125 108 0
h -118 -126 109 0
h -119 -121 127 0
h -119 -122 106 0
h -119 -123 107 0
h -119 -124 108 0
h -119 -125 109 0
h -119 -126 110 0
h -127 104 0
h -120 104 0
h -127 -120 105 0
h -113 104 0
h -127 -113 105 0
h -113 -120 105 0
h -127 -113 -120 0
h -134 128 0
h -135 129 0
h -132 128 0
h -133 129 0
h -132 -134 129 0
h -132 -135 130 0
h -133 -134 130 0
h -133 -135 131 0
h -57 134 0
h -56 134 0
h -56 -57 135 0
h -55 132 0
h -54 132 0
h -54 -55 133 0
h -60 136 0
h -139 136 0
h -140 137 0
h -139 -60 137 0
h -140 -60 138 0
h -59 139 0
h -58 139 0
h -58 -59 140 0
h -136 121 141 0
h -137 122 141 0
h -138 123 141 0
h -128 121 141 0
h -129 122 141 0
h -130 123 141 0
h -131 124 141 0
h -128 -136 122 141 0
h -128 -137 123 141 0
h -128 -138 124 141 0
h -129 -136 123 141 0
h -129 -137 124 141 0
h -129 -138 125 141 0
h -130 -136 124 141 0
h -130 -137 125 141 0
h -130 -138 126 141 0
h -131 -136 125 141 0
h -131 -137 126 141 0
h -131 -138 141 0
h -141 120 0
h -148 142 0
h -149 143 0
h -146 142 0
h -147 143 0
h -146 -148 143 0
h -146 -149 144 0
h -147 -148 144 0
h -147 -149 145 0
h -49 148 0
h -48 148 0
h -48 -49 149 0
h -47 146 0
h -46 146 0
h -46 -47 147 0
h -156 150 0
h -157 151 0
h -154 150 0
h -155 151 0
h -154 -156 151 0
h -154 -157 152 0
h -155 -156 152 0
h -155 -157 153 0
h -53 156 0
h -52 156 0
h -52 -53 157 0
h -51 154 0
h -50 154 0
h -50 -51 155 0
h -150 114 158 0
h -151 115 158 0
h -152 116 158 0
h -153 117 158 0
h -142 114 158 0
h -143 115 158 0
h -144 116 158 0
h -145 117 158 0
h -142 -150 115 158 0
h -142 -151 116 158 0
h -142 -152 117 158 0
h -142 -153 118 158 0
h -143 -150 116 158 0
h -143 -151 117 158 0
h -143 -152 118 158 0
h -143 -153 119 158 0
h -144 -150 117 158 0
h -144 -151 118 158 0
h -144 -152 119 158 0
h -144 -153 158 0
h -145 -150 118 158 0
h -145 -151 119 158 0
h -145 -152 158 0
h -145 -153 114 0
h -158 113 0
h -167 98 173 0
h -168 99 173 0
h -169 100 173 0
h -170 101 173 0
h -171 102 173 0
h -172 103 173 0
h -160 98 173 0
h -161 99 173 0
h -162 100 173 0
h -163 101 173 0
h -164 102 173 0
h -165 103 173 0
h -160 -167 99 173 0
h -160 -168 100 173 0
h -160 -169 101 173 0
h -160 -170 102 173 0
h -160 -171 103 173 0
h -160 -172 173 0
h -161 -167 100 173 0
h -161 -168 101 173 0
h -161 -169 102 173 0
h -161 -170 103 173 0
h -161 -171 173 0
h -161 -172 98 0
h -162 -167 101 173 0
h -162 -168 102 173 0
h -162 -169 103 173 0
h -162 -170 173 0
h -162 -171 98 0
h -162 -172 99 0
h -163 -167 102 173 0
h -163 -168 103 173 0
h -163 -169 173 0
h -163 -170 98 0
h -163 -171 99 0
h -163 -172 100 0
h -164 -167 103 173 0
h -164 -168 173 0
h -164 -169 98 0
h -164 -170 99 0
h -164 -171 100 0
h -164 -172 101 0
h -165 -167 173 0
h -165 -168 98 0
h -165 -169 99 0
h -165 -170 100 0
h -165 -171 101 0
h -165 -172 102 0
h -173 96 0
h -166 96 0
h -173 -166 97 0
h -159 96 0
h -173 -159 97 0
h -159 -166 97 0
h -173 -159 -166 0
h -180 174 0
h -181 175 0
h -178 174 0
h -179 175 0
h -178 -180 175 0
h -178 -181 176 0
h -179 -180 176 0
h -179 -181 177 0
h -42 180 0
h -41 180 0
h -41 -42 181 0
h -40 178 0
h -39 178 0
h -39 -40 179 0
h -45 182 0
h -185 182 0
h -186 183 0
h -185 -45 183 0
h -186 -45 184 0
h -44 185 0
h -43 185 0
h -43 -44 186 0
h -182 167 187 0
h -183 168 187 0
h -184 169 187 0
h -174 167 187 0
h -175 168 187 0
h -176 169 187 0
h -177 170 187 0
h -174 -182 168 187 0
h -174 -183 169 187 0
h -174 -184 170 187 0
h -175 -182 169 187 0
h -175 -183 170 187 0
h -175 -184 171 187 0
h -176 -182 170 187 0
h -176 -183 171 187 0
h -176 -184 172 187 0
h -177 -182 171 187 0
h -177 -183 172 187 0
h -177 -184 187 0
h -187 166 0
h -194 188 0
h -195 189 0
h -192 188 0
h -193 189 0
h -192 -194 189 0
h -192 -195 190 0
h -193 -194 190 0
h -193 -195 191 0
h -34 194 0
h -33 194 0
h -33 -34 195 0
h -32 192 0
h -31 192 0
h -31 -32 193 0
h -202 196 0
h -203 197 0
h -200 196 0
h -201 197 0
h -200 -202 197 0
h -200 -203 198 0
h -201 -202 198 0
h -201 -203 199 0
h -38 202 0
h -37 202 0
h -37 -38 203 0
h -36 200 0
h -35 200 0
h -35 -36 201 0
h -196 160 204 0
h -197 161 204 0
h -198 162 204 0
h -199 163 204 0
h -188 160 204 0
h -189 161 204 0
h -190 162 204 0
h -191 163 204 0
h -188 -196 161 204 0
h -188 -197 162 204 0
h -188 -198 163 204 0
h -188 -199 164 204 0
h -189 -196 162 204 0
h -189 -197 163 204 0
h -189 -198 164 204 0
h -189 -199 165 204 0
h -190 -196 163 204 0
h -190 -197 164 204 0
h -190 -198 165 204 0
h -190 -199 204 0
h -191 -196 164 204 0
h -191 -197 165 204 0
h -191 -198 204 0
h -191 -199 160 0
h -204 159 0
h -215 79 221 0
h -216 80 221 0
h -217 81 221 0
h -218 82 221 0
h -219 83 221 0
h -220 84 221 0
h -207 79 221 0
h -208 80 221 0
h -209 81 221 0
h -210 82 221 0
h -211 83 221 0
h -212 84 221 0
h -207 -215 80 221 0
h -207 -216 81 221 0
h -207 -217 82 221 0
h -207 -218 83 221 0
h -207 -219 84 221 0
h -207 -220 221 0
h -208 -215 81 221 0
h -208 -216 82 221 0
h -208 -217 83 221 0
h -208 -218 84 221 0
h -208 -219 221 0
h -208 -220 79 0
h -209 -215 82 221 0
h -209 -216 83 221 0
h -209 -217 84 221 0
h -209 -218 221 0
h -209 -219 79 0
h -209 -220 80 0
h -210 -215 83 221 0
h -210 -216 84 221 0
h -210 -217 221 0
h -210 -218 79 0
h -210 -219 80 0
h -210 -220 81 0
h -211 -215 84 221 0
h -211 -216 221 0
h -211 -217 79 0
h -211 -218 80 0
h -211 -219 81 0
h -211 -220 82 0
h -212 -215 221 0
h -212 -216 79 0
h -212 -217 80 0
h -212 -218 81 0
h -212 -219 82 0
h -212 -220 83 0
h -221 75 0
h -213 75 0
h -221 -213 76 0
h -214 76 0
h -221 -214 77 0
h -205 75 0
h -221 -205 76 0
h -206 76 0
h -221 -206 77 0
h -205 -213 76 0
h -221 -205 -213 77 0
h -205 -214 77 0
h -221 -205 -214 78 0
h -206 -213 77 0
h -221 -206 -213 78 0
h -206 -214 78 0
h -221 -206 -214 0
h -230 215 236 0
h -231 216 236 0
h -232 217 236 0
h -233 218 236 0
h -234 219 236 0
h -235 220 236 0
h -223 215 236 0
h -224 216 236 0
h -225 217 236 0
h -226 218 236 0
h -227 219 236 0
h -228 220 236 0
h -223 -230 216 236 0
h -223 -231 217 236 0
h -223 -232 218 236 0
h -223 -233 219 236 0
h -223 -234 220 236 0
h -223 -235 236 0
h -224 -230 217 236 0
h -224 -231 218 236 0
h -224 -232 219 236 0
h -224 -233 220 236 0
h -224 -234 236 0
h -224 -235 215 0
h -225 -230 218 236 0
h -225 -231 219 236 0
h -225 -232 220 236 0
h -225 -233 236 0
h -225 -234 215 0
h -225 -235 216 0
h -226 -230 219 236 0
h -226 -231 220 236 0
h -226 -232 236 0
h -226 -233 215 0
h -226 -234 216 0
h -226 -235 217 0
h -227 -230 220 236 0
h -227 -231 236 0
h -227 -232 215 0
h -227 -233 216 0
h -227 -234 217 0
h -227 -235 218 0
h -228 -230 236 0
h -228 -231 215 0
h -228 -232 216 0
h -228 -233 217 0
h -228 -234 218 0
h -228 -235 219 0
h -236 213 0
h -229 213 0
h -236 -229 214 0
h -222 213 0
h -236 -222 214 0
h -222 -229 214 0
h -236 -222 -229 0
h -243 237 0
h -244 238 0
h -241 237 0
h -242 238 0
h -241 -243 238 0
h -241 -244 239 0
h -242 -243 239 0
h -242 -244 240 0
h -27 243 0
h -26 243 0
h -26 -27 244 0
h -25 241 0
h -24 241 0
h -24 -25 242 0
h -30 245 0
h -248 245 0
h -249 246 0
h -248 -30 246 0
h -249 -30 247 0
h -29 248 0
h -28 248 0
h -28 -29 249 0
h -245 230 250 0
h -246 231 250 0
h -247 232 250 0
h -237 230 250 0
h -238 231 250 0
h -239 232 250 0
h -240 233 250 0
h -237 -245 231 250 0
h -237 -246 232 250 0
h -237 -247 233 250 0
h -238 -245 232 250 0
h -238 -246 233 250 0
h -238 -247 234 250 0
h -239 -245 233 250 0
h -239 -246 234 250 0
h -239 -247 235 250 0
h -240 -245 234 250 0
h -240 -246 235 250 0
h -240 -247 250 0
h -250 229 0
h -257 251 0
h -258 252 0
h -255 251 0
h -256 252 0
h -255 -257 252 0
h -255 -258 253 0
h -256 -257 253 0
h -256 -258 254 0
h -19 257 0
h -18 257 0
h -18 -19 258 0
h -17 255 0
h -16 255 0
h -16 -17 256 0
h -265 259 0
h -266 260 0
h -263 259 0
h -264 260 0
h -263 -265 260 0
h -263 -266 261 0
h -264 -265 261 0
h -264 -266 262 0
h -23 265 0
h -22 265 0
h -22 -23 266 0
h -21 263 0
h -20 263 0
h -20 -21 264 0
h -259 223 267 0
h -260 224 267 0
h -261 225 267 0
h -262 226 267 0
h -251 223 267 0
h -252 224 267 0
h -253 225 267 0
h -254 226 267 0
h -251 -259 224 267 0
h -251 -260 225 267 0
h -251 -261 226 267 0
h -251 -262 227 267 0
h -252 -259 225 267 0
h -252 -260 226 267 0
h -252 -261 227 267 0
h -252 -262 228 267 0
h -253 -259 226 267 0
h -253 -260 227 267 0
h -253 -261 228 267 0
h -253 -262 267 0
h -254 -259 227 267 0
h -254 -260 228 267 0
h -254 -261 267 0
h -254 -262 223 0
h -267 222 0
h -276 207 282 0
h -277 208 282 0
h -278 209 282 0
h -279 210 282 0
h -280 211 282 0
h -281 212 282 0
h -269 207 282 0
h -270 208 282 0
h -271 209 282 0
h -272 210 282 0
h -273 211 282 0
h -274 212 282 0
h -269 -276 208 282 0
h -269 -277 209 282 0
h -269 -278 210 282 0
h -269 -279 211 282 0
h -269 -280 212 282 0
h -269 -281 282 0
h -270 -276 209 282 0
h -270 -277 210 282 0
h -270 -278 211 282 0
h -270 -279 212 282 0
h -270 -280 282 0
h -270 -281 207 0
h -271 -276 210 282 0
h -271 -277 211 282 0
h -271 -278 212 282 0
h -271 -279 282 0
h -271 -280 207 0
h -271 -281 208 0
h -272 -276 211 282 0
h -272 -277 212 282 0
h -272 -278 282 0
h -272 -279 207 0
h -272 -280 208 0
h -272 -281 209 0
h -273 -276 212 282 0
h -273 -277 282 0
h -273 -278 207 0
h -273 -279 208 0
h -273 -280 209 0
h -273 -281 210 0
h -274 -276 282 0
h -274 -277 207 0
h -274 -278 208 0
h -274 -279 209 0
h -274 -280 210 0
h -274 -281 211 0
h -282 205 0
h -275 205 0
h -282 -275 206 0
h -268 205 0
h -282 -268 206 0
h -268 -275 206 0
h -282 -268 -275 0
h -289 283 0
h -290 284 0
h -287 283 0
h -288 284 0
h -287 -289 284 0
h -287 -290 285 0
h -288 -289 285 0
h -288 -290 286 0
h -12 289 0
h -11 289 0
h -11 -12 290 0
h -10 287 0
h -9 287 0
h -9 -10 288 0
h -15 291 0
h -294 291 0
h -295 292 0
h -294 -15 292 0
h -295 -15 293 0
h -14 294 0
h -13 294 0
h -13 -14 295 0
h -291 276 296 0
h -292 277 296 0
h -293 278 296 0
h -283 276 296 0
h -284 277 296 0
h -285 278 296 0
h -286 279 296 0
h -283 -291 277 296 0
h -283 -292 278 296 0
h -283 -293 279 296 0
h -284 -291 278 296 0
h -284 -292 279 296 0
h -284 -293 280 296 0
h -285 -291 279 296 0
h -285 -292 280 296 0
h -285 -293 281 296 0
h -286 -291 280 296 0
h -286 -292 281 296 0
h -286 -293 296 0
h -296 275 0
h -303 297 0
h -304 298 0
h -301 297 0
h -302 298 0
h -301 -303 298 0
h -301 -304 299 0
h -302 -303 299 0
h -302 -304 300 0
h -4 303 0
h -3 303 0
h -3 -4 304 0
h -2 301 0
h -1 301 0
h -1 -2 302 0
h -311 305 0
h -312 306 0
h -309 305 0
h -310 306 0
h -309 -311 306 0
h -309 -312 307 0
h -310 -311 307 0
h -310 -312 308 0
h -8 311 0
h -7 311 0
h -7 -8 312 0
h -6 309 0
h -5 309 0
h -5 -6 310 0
h -305 269 313 0
h -306 270 313 0
h -307 271 313 0
h -308 272 313 0
h -297 269 313 0
h -298 270 313 0
h -299 271 313 0
h -300 272 313 0
h -297 -305 270 313 0
h -297 -306 271 313 0
h -297 -307 272 313 0
h -297 -308 273 313 0
h -298 -305 271 313 0
h -298 -306 272 313 0
h -298 -307 273 313 0
h -298 -308 274 313 0
h -299 -305 272 313 0
h -299 -306 273 313 0
h -299 -307 274 313 0
h -299 -308 313 0
h -300 -305 273 313 0
h -300 -306 274 313 0
h -300 -307 313 0
h -300 -308 269 0
h -313 268 0
h -65 0
h -66 0
h -67 0
h -68 0
h -64 -69 0
h -64 -70 0
h -64 -71 0
h -64 -72 0
h -64 -73 0
h -64 -74 0
